<number of tasks>
21

<cycle time>
26

<task times>
1 4
2 3
3 9
4 5
5 9
6 4
7 8
8 7
9 5
10 1
11 3
12 1
13 5
14 3
15 5
16 3
17 13
18 5
19 2
20 3
21 7

<precedence relations>
1,2
1,3
2,21
3,4
4,5
4,21
5,6
5,7
6,8
7,8
7,14
8,9
9,10
9,11
9,12
9,13
10,15
11,15
12,15
13,17
13,18
14,19
15,16
15,18
16,17
17,20
18,19

<setup times forward>
2,5:1
2,6:1
2,7:1
2,13:1
2,14:1
2,15:1
2,16:1
2,17:1
2,18:1
2,19:1
2,20:1
4,5:1
5,2:1
5,21:1
6,2:1
6,8:1
6,21:1
7,2:1
7,8:1
7,21:1
8,14:1
9,13:1
9,14:1
10,13:1
10,14:1
10,15:1
11,13:1
11,14:1
11,15:1
12,13:1
12,14:1
12,15:1
13,2:1
13,10:1
13,11:1
13,12:1
13,21:1
14,2:1
14,8:1
14,9:1
14,10:1
14,11:1
14,12:1
14,21:1
15,2:1
15,21:1
16,2:1
16,21:1
17,2:1
17,21:1
18,2:1
18,21:1
19,2:1
19,21:1
20,2:1
20,21:1
21,5:1
21,6:1
21,7:1
21,13:1
21,14:1
21,15:1
21,16:1
21,17:1
21,18:1
21,19:1
21,20:1

<setup times backward>
5,1:1
5,2:1
5,3:1
5,4:1
5,21:1
6,1:1
6,2:1
6,3:1
6,4:1
6,21:1
7,1:1
7,2:1
7,3:1
7,4:1
7,21:1
13,1:1
13,2:1
13,3:1
13,4:1
13,8:1
13,9:1
13,10:1
13,11:1
13,12:1
13,21:1
14,1:1
14,2:1
14,3:1
14,4:1
14,8:1
14,9:1
14,10:1
14,11:1
14,12:1
14,21:1
15,1:1
15,2:1
15,3:1
15,4:1
15,8:1
15,9:1
15,10:1
15,11:1
15,12:1
15,21:1
16,1:1
16,2:1
16,3:1
16,4:1
16,8:1
16,9:1
16,10:1
16,11:1
16,12:1
16,21:1
17,1:1
17,2:1
17,3:1
17,4:1
17,8:1
17,9:1
17,10:1
17,11:1
17,12:1
17,21:1
18,1:1
18,2:1
18,3:1
18,4:1
18,8:1
18,9:1
18,10:1
18,11:1
18,12:1
18,21:1
19,1:1
19,2:1
19,3:1
19,4:1
19,8:1
19,9:1
19,10:1
19,11:1
19,12:1
19,21:1
20,1:1
20,2:1
20,3:1
20,4:1
20,8:1
20,9:1
20,10:1
20,11:1
20,12:1
20,21:1

<end>

<optimal SALBP-1 value>
5


<rand seed>
467321153

